38
75
52	10
51	14
50	13
49	7
48	15
47	11
46	11
45	11
44	9
43	14
42	15
41	15
40	13
39	7
38	13
37	6
36	15
35	14
34	8
33	14
32	7
31	10
30	7
29	12
28	4
27	7
26	12
25	10
24	6
23	10
22	12
21	9
20	14
19	7
18	8
17	5
16	15
15	10
